105
Route #1: 1 10 35 
Route #2: 2 37 
Route #3: 3 31 56 
Route #4: 4 
Route #5: 5 39 
Route #6: 6 45 
Route #7: 7 
Route #8: 8 43 
Route #9: 9 26 
Route #10: 11 
Route #11: 12 24 49 
Route #12: 13 46 
Route #13: 14 27 
Route #14: 15 36 57 
Route #15: 16 40 70 
Route #16: 17 
Route #17: 18 
Route #18: 19 
Route #19: 20 28 54 
Route #20: 21 48 
Route #21: 22 33 52 74 
Route #22: 23 47 
Route #23: 25 42 67 
Route #24: 29 38 51 62 89 
Route #25: 30 59 71 98 
Route #26: 32 61 
Route #27: 34 
Route #28: 41 72 
Route #29: 44 73 
Route #30: 50 101 
Route #31: 53 63 117 
Route #32: 55 65 81 103 137 
Route #33: 58 76 107 
Route #34: 60 115 147 
Route #35: 64 88 110 128 
Route #36: 66 78 134 
Route #37: 68 94 114 154 
Route #38: 69 121 
Route #39: 75 102 156 
Route #40: 77 130 
Route #41: 79 140 
Route #42: 80 139 
Route #43: 82 105 148 
Route #44: 83 118 152 
Route #45: 84 142 
Route #46: 85 132 
Route #47: 86 125 151 
Route #48: 87 111 153 
Route #49: 90 
Route #50: 91 129 
Route #51: 92 150 
Route #52: 93 143 168 
Route #53: 95 127 
Route #54: 96 135 
Route #55: 97 146 176 
Route #56: 99 
Route #57: 100 141 
Route #58: 104 
Route #59: 106 144 
Route #60: 108 
Route #61: 109 
Route #62: 112 119 171 
Route #63: 113 122 161 
Route #64: 116 
Route #65: 120 187 
Route #66: 123 149 192 
Route #67: 124 159 172 
Route #68: 126 138 177 202 
Route #69: 131 206 
Route #70: 133 163 205 
Route #71: 136 178 209 
Route #72: 145 186 
Route #73: 155 174 216 
Route #74: 157 197 
Route #75: 158 179 224 233 
Route #76: 160 195 210 238 
Route #77: 162 207 225 247 
Route #78: 164 219 
Route #79: 165 208 
Route #80: 166 218 
Route #81: 167 184 236 
Route #82: 169 229 
Route #83: 170 217 
Route #84: 173 201 237 
Route #85: 175 196 223 246 
Route #86: 180 240 
Route #87: 181 235 
Route #88: 182 239 
Route #89: 183 231 
Route #90: 185 232 
Route #91: 188 211 220 230 249 
Route #92: 189 242 
Route #93: 190 234 250 
Route #94: 191 227 
Route #95: 193 222 245 
Route #96: 194 243 
Route #97: 198 226 
Route #98: 199 228 
Route #99: 200 
Route #100: 203 221 
Route #101: 204 248 
Route #102: 212 244 
Route #103: 213 
Route #104: 214 241 
Route #105: 215 
Cost 105.0
